pure_adt/tip2015_nat_acc_plus_comm.smt2
(set-logic HORN)
(declare-datatypes ((Nat_410 0)) (((zero_97 ) (succ_95 (p_278 Nat_410)))))
(declare-fun diseqNat_410 (Nat_410 Nat_410) Bool)
(declare-fun p_279 (Nat_410 Nat_410) Bool)
(declare-fun iszero_95 (Nat_410) Bool)
(declare-fun issucc_95 (Nat_410) Bool)
(assert (forall ((x_45599 Nat_410))
	(p_279 x_45599 (succ_95 x_45599))))
(assert (iszero_95 zero_97))
(assert (forall ((x_45601 Nat_410))
	(issucc_95 (succ_95 x_45601))))
(assert (forall ((x_45602 Nat_410))
	(diseqNat_410 zero_97 (succ_95 x_45602))))
(assert (forall ((x_45603 Nat_410))
	(diseqNat_410 (succ_95 x_45603) zero_97)))
(assert (forall ((x_45604 Nat_410) (x_45605 Nat_410))
	(=> (diseqNat_410 x_45604 x_45605)
	    (diseqNat_410 (succ_95 x_45604) (succ_95 x_45605)))))
(declare-fun accplus_4 (Nat_410 Nat_410 Nat_410) Bool)
(assert (forall ((x_45592 Nat_410) (z_1446 Nat_410) (y_1603 Nat_410))
	(=> (accplus_4 x_45592 z_1446 (succ_95 y_1603))
	    (accplus_4 x_45592 (succ_95 z_1446) y_1603))))
(assert (forall ((x_45594 Nat_410))
	(accplus_4 x_45594 zero_97 x_45594)))
(assert (forall ((x_45595 Nat_410) (x_45596 Nat_410) (x_45591 Nat_410) (y_1604 Nat_410))
	(=>	(and true
			(diseqNat_410 x_45595 x_45596)
			(accplus_4 x_45595 x_45591 y_1604)
			(accplus_4 x_45596 y_1604 x_45591))
		false)))
(check-sat)
